TCS_Benchmarks/redos_fix/regexlib2_output_distinct_3266_3265_272_0.txt
(.*)([0-9A-Za-z]{2,})
(.*)([0-9A-Za-z\-_]+\.)([0-9A-Za-z]{2,})